tsp_instances/TSP50/instance88.tsp
NODE_COORD_SECTION
0 35 129
1 58 188
2 99 161
3 168 147
4 94 119
5 192 142
6 190 34
7 36 28
8 43 110
9 113 27
10 117 26
11 178 122
12 5 186
13 128 95
14 199 51
15 161 56
16 186 179
17 40 89
18 7 153
19 182 74
20 187 31
21 180 120
22 197 190
23 139 61
24 176 10
25 64 7
26 96 190
27 71 38
28 66 6
29 143 100
30 131 4
31 120 142
32 132 101
33 54 11
34 33 173
35 111 170
36 116 170
37 139 11
38 62 108
39 85 6
40 13 28
41 30 5
42 134 99
43 99 54
44 108 79
45 183 158
46 44 18
47 95 58
48 175 74
49 151 159
