tsp_instances/TSP50/instance88.opt.tour
TOUR_SECTION
1
9
18
39
5
45
48
44
28
8
41
42
47
34
26
29
40
10
11
31
38
25
21
7
15
20
49
16
24
14
33
43
30
12
22
6
23
17
46
4
50
32
3
36
37
27
2
35
13
19
-1